597,322
624,388
644,520
639,672
681,916
753,354
740,397
740,415
778,476
729,441
672,465
672,434
721,326
488,140
269,107
830,112
874,140
425,489
311,526
681,706
491,780
792,748
1028,583
871,216
786,261
808,279
709,229
515,-107
584,336
593,527
745,605
